Trabalho 2/104527.txt
10
16
7 2 0 60
7 3 0 60
1 7 0 60
8 1 0 60
2 8 0 70
8 3 0 70
8 4 0 30
9 5 0 30
4 9 0 30
9 2 0 30
5 10 0 80
10 4 0 30
10 3 0 80
6 4 0 30
6 5 0 80
3 6 -1 1000
0
0
0
0
0
0
0
0
0
0

